nK = 948;
nT = 6;
nI = 14;
L = 29;
TT = 201;
np = 1;
nc = 3;
b = [33, 50, 62, 41, 39, 42, 55, 43, 38, 53, 67, 52, 60, 48];
d = [114, 142, 149, 106, 73, 130, 115, 110, 150, 141, 141, 102, 117, 91];
m = [1.5, 1.8, 2, 1.3, 1.9, 2.1, 2.5, 1.9, 1.2, 1, 2.1, 2.2, 2.1, 1.6];
pt = [0.21, 0.33, 0.33, 0.2, 0.33, 0.33];
st = [11.76, 17.82, 17.16, 11.4, 19.14, 19.8];
arc = {<1, 0, 1, 1, 0, 0, 0, [1, 1, 1, 1, 1, 1]>, <2, 1, 2, 1, 0, 0, 0, [1, 1, 1, 1, 1, 1]>, <3, 2, 3, 1, 0, 0, 0, [1, 1, 1, 1, 1, 1]>, <4, 3, 4, 1, 0, 0, 0, [1, 1, 1, 1, 1, 1]>, <5, 4, 5, 1, 0, 0, 0, [1, 1, 1, 1, 1, 1]>, <6, 5, 6, 1, 0, 0, 0, [1, 1, 1, 1, 1, 1]>, <7, 6, 7, 1, 0, 0, 0, [1, 1, 1, 1, 1, 1]>, <8, 7, 8, 1, 0, 0, 0, [1, 1, 1, 1, 1, 1]>, <9, 8, 9, 1, 0, 0, 0, [1, 1, 1, 1, 1, 1]>, <10, 9, 10, 1, 0, 0, 0, [1, 1, 1, 1, 1, 1]>, <11, 10, 11, 1, 0, 0, 0, [1, 1, 1, 1, 1, 1]>, <12, 11, 12, 1, 0, 0, 0, [1, 1, 1, 1, 1, 1]>, <13, 12, 13, 1, 0, 0, 0, [1, 1, 1, 1, 1, 1]>, <14, 13, 14, 1, 0, 0, 0, [1, 1, 1, 1, 1, 1]>, <15, 14, 15, 1, 0, 0, 0, [1, 1, 1, 1, 1, 1]>, <16, 15, 16, 1, 0, 0, 0, [1, 1, 1, 1, 1, 1]>, <17, 16, 17, 1, 0, 0, 0, [1, 1, 1, 1, 1, 1]>, <18, 17, 18, 1, 0, 0, 0, [1, 1, 1, 1, 1, 1]>, <19, 18, 19, 1, 0, 0, 0, [1, 1, 1, 1, 1, 1]>, <20, 19, 20, 1, 0, 0, 0, [1, 1, 1, 1, 1, 1]>, <21, 20, 21, 1, 0, 0, 0, [1, 1, 1, 1, 1, 1]>, <22, 21, 22, 1, 0, 0, 0, [1, 1, 1, 1, 1, 1]>, <23, 22, 23, 1, 0, 0, 0, [1, 1, 1, 1, 1, 1]>, <24, 23, 24, 1, 0, 0, 0, [1, 1, 1, 1, 1, 1]>, <25, 24, 25, 1, 0, 0, 0, [1, 1, 1, 1, 1, 1]>, <26, 25, 26, 1, 0, 0, 0, [1, 1, 1, 1, 1, 1]>, <27, 26, 27, 1, 0, 0, 0, [1, 1, 1, 1, 1, 1]>, <28, 27, 28, 1, 0, 0, 0, [1, 1, 1, 1, 1, 1]>, <29, 28, 29, 1, 0, 0, 0, [1, 1, 1, 1, 1, 1]>, <30, 3, 12, 9, 1, 0, 1, [1, 1, 1, 0, 0, 1]>, <31, 4, 13, 9, 1, 0, 1, [1, 1, 1, 0, 0, 1]>, <32, 5, 14, 9, 1, 0, 1, [1, 1, 1, 0, 0, 1]>, <33, 11, 20, 9, 1, 0, 1, [1, 1, 1, 0, 0, 1]>, <34, 12, 21, 9, 1, 0, 1, [1, 1, 1, 0, 0, 1]>, <35, 15, 24, 9, 1, 0, 1, [1, 1, 1, 0, 0, 1]>, <36, 16, 25, 9, 1, 0, 1, [1, 1, 1, 0, 0, 1]>, <37, 17, 26, 9, 1, 0, 1, [1, 1, 1, 0, 0, 1]>, <38, 18, 27, 9, 1, 0, 1, [1, 1, 1, 0, 0, 1]>, <39, 19, 28, 9, 1, 0, 1, [1, 1, 1, 0, 0, 1]>, <40, 20, 29, 9, 1, 0, 1, [1, 1, 1, 0, 0, 1]>, <41, 4, 11, 7, 2, 0, 0, [1, 0, 0, 1, 1, 1]>, <42, 5, 12, 7, 2, 0, 0, [1, 0, 0, 1, 1, 1]>, <43, 11, 18, 7, 2, 0, 0, [1, 0, 0, 1, 1, 1]>, <44, 12, 19, 7, 2, 0, 0, [1, 0, 0, 1, 1, 1]>, <45, 17, 24, 7, 2, 0, 0, [1, 0, 0, 1, 1, 1]>, <46, 18, 25, 7, 2, 0, 0, [1, 0, 0, 1, 1, 1]>, <47, 19, 26, 7, 2, 0, 0, [1, 0, 0, 1, 1, 1]>, <48, 20, 27, 7, 2, 0, 0, [1, 0, 0, 1, 1, 1]>, <49, 3, 12, 9, 3, 0, 0, [1, 1, 1, 0, 0, 1]>, <50, 4, 13, 9, 3, 0, 0, [1, 1, 1, 0, 0, 1]>, <51, 5, 14, 9, 3, 0, 0, [1, 1, 1, 0, 0, 1]>, <52, 11, 20, 9, 3, 0, 0, [1, 1, 1, 0, 0, 1]>, <53, 12, 21, 9, 3, 0, 0, [1, 1, 1, 0, 0, 1]>, <54, 15, 24, 9, 3, 0, 0, [1, 1, 1, 0, 0, 1]>, <55, 16, 25, 9, 3, 0, 0, [1, 1, 1, 0, 0, 1]>, <56, 17, 26, 9, 3, 0, 0, [1, 1, 1, 0, 0, 1]>, <57, 18, 27, 9, 3, 0, 0, [1, 1, 1, 0, 0, 1]>, <58, 19, 28, 9, 3, 0, 0, [1, 1, 1, 0, 0, 1]>, <59, 20, 29, 9, 3, 0, 0, [1, 1, 1, 0, 0, 1]>, <60, 2, 12, 10, 4, 0, 0, [1, 1, 1, 0, 0, 1]>, <61, 3, 13, 10, 4, 0, 0, [1, 1, 1, 0, 0, 1]>, <62, 4, 14, 10, 4, 0, 0, [1, 1, 1, 0, 0, 1]>, <63, 5, 15, 10, 4, 0, 0, [1, 1, 1, 0, 0, 1]>, <64, 10, 20, 10, 4, 0, 0, [1, 1, 1, 0, 0, 1]>, <65, 11, 21, 10, 4, 0, 0, [1, 1, 1, 0, 0, 1]>, <66, 12, 22, 10, 4, 0, 0, [1, 1, 1, 0, 0, 1]>, <67, 14, 24, 10, 4, 0, 0, [1, 1, 1, 0, 0, 1]>, <68, 15, 25, 10, 4, 0, 0, [1, 1, 1, 0, 0, 1]>, <69, 16, 26, 10, 4, 0, 0, [1, 1, 1, 0, 0, 1]>, <70, 17, 27, 10, 4, 0, 0, [1, 1, 1, 0, 0, 1]>, <71, 18, 28, 10, 4, 0, 0, [1, 1, 1, 0, 0, 1]>, <72, 19, 29, 10, 4, 0, 0, [1, 1, 1, 0, 0, 1]>, <73, 1, 12, 11, 5, 0, 1, [1, 1, 1, 1, 0, 0]>, <74, 2, 13, 11, 5, 0, 1, [1, 1, 1, 1, 0, 0]>, <75, 3, 14, 11, 5, 0, 1, [1, 1, 1, 1, 0, 0]>, <76, 4, 15, 11, 5, 0, 1, [1, 1, 1, 1, 0, 0]>, <77, 5, 16, 11, 5, 0, 1, [1, 1, 1, 1, 0, 0]>, <78, 9, 20, 11, 5, 0, 1, [1, 1, 1, 1, 0, 0]>, <79, 10, 21, 11, 5, 0, 1, [1, 1, 1, 1, 0, 0]>, <80, 11, 22, 11, 5, 0, 1, [1, 1, 1, 1, 0, 0]>, <81, 12, 23, 11, 5, 0, 1, [1, 1, 1, 1, 0, 0]>, <82, 13, 24, 11, 5, 0, 1, [1, 1, 1, 1, 0, 0]>, <83, 14, 25, 11, 5, 0, 1, [1, 1, 1, 1, 0, 0]>, <84, 15, 26, 11, 5, 0, 1, [1, 1, 1, 1, 0, 0]>, <85, 16, 27, 11, 5, 0, 1, [1, 1, 1, 1, 0, 0]>, <86, 17, 28, 11, 5, 0, 1, [1, 1, 1, 1, 0, 0]>, <87, 18, 29, 11, 5, 0, 1, [1, 1, 1, 1, 0, 0]>, <88, 4, 12, 8, 6, 1, 0, [1, 1, 1, 0, 0, 1]>, <89, 5, 13, 8, 6, 1, 0, [1, 1, 1, 0, 0, 1]>, <90, 11, 19, 8, 6, 1, 0, [1, 1, 1, 0, 0, 1]>, <91, 12, 20, 8, 6, 1, 0, [1, 1, 1, 0, 0, 1]>, <92, 16, 24, 8, 6, 1, 0, [1, 1, 1, 0, 0, 1]>, <93, 17, 25, 8, 6, 1, 0, [1, 1, 1, 0, 0, 1]>, <94, 18, 26, 8, 6, 1, 0, [1, 1, 1, 0, 0, 1]>, <95, 19, 27, 8, 6, 1, 0, [1, 1, 1, 0, 0, 1]>, <96, 20, 28, 8, 6, 1, 0, [1, 1, 1, 0, 0, 1]>, <97, 1, 12, 11, 7, 0, 0, [1, 1, 1, 0, 0, 1]>, <98, 2, 13, 11, 7, 0, 0, [1, 1, 1, 0, 0, 1]>, <99, 3, 14, 11, 7, 0, 0, [1, 1, 1, 0, 0, 1]>, <100, 4, 15, 11, 7, 0, 0, [1, 1, 1, 0, 0, 1]>, <101, 5, 16, 11, 7, 0, 0, [1, 1, 1, 0, 0, 1]>, <102, 9, 20, 11, 7, 0, 0, [1, 1, 1, 0, 0, 1]>, <103, 10, 21, 11, 7, 0, 0, [1, 1, 1, 0, 0, 1]>, <104, 11, 22, 11, 7, 0, 0, [1, 1, 1, 0, 0, 1]>, <105, 12, 23, 11, 7, 0, 0, [1, 1, 1, 0, 0, 1]>, <106, 13, 24, 11, 7, 0, 0, [1, 1, 1, 0, 0, 1]>, <107, 14, 25, 11, 7, 0, 0, [1, 1, 1, 0, 0, 1]>, <108, 15, 26, 11, 7, 0, 0, [1, 1, 1, 0, 0, 1]>, <109, 16, 27, 11, 7, 0, 0, [1, 1, 1, 0, 0, 1]>, <110, 17, 28, 11, 7, 0, 0, [1, 1, 1, 0, 0, 1]>, <111, 18, 29, 11, 7, 0, 0, [1, 1, 1, 0, 0, 1]>, <112, 1, 12, 11, 8, 0, 0, [1, 1, 0, 0, 1, 1]>, <113, 2, 13, 11, 8, 0, 0, [1, 1, 0, 0, 1, 1]>, <114, 3, 14, 11, 8, 0, 0, [1, 1, 0, 0, 1, 1]>, <115, 4, 15, 11, 8, 0, 0, [1, 1, 0, 0, 1, 1]>, <116, 5, 16, 11, 8, 0, 0, [1, 1, 0, 0, 1, 1]>, <117, 9, 20, 11, 8, 0, 0, [1, 1, 0, 0, 1, 1]>, <118, 10, 21, 11, 8, 0, 0, [1, 1, 0, 0, 1, 1]>, <119, 11, 22, 11, 8, 0, 0, [1, 1, 0, 0, 1, 1]>, <120, 12, 23, 11, 8, 0, 0, [1, 1, 0, 0, 1, 1]>, <121, 13, 24, 11, 8, 0, 0, [1, 1, 0, 0, 1, 1]>, <122, 14, 25, 11, 8, 0, 0, [1, 1, 0, 0, 1, 1]>, <123, 15, 26, 11, 8, 0, 0, [1, 1, 0, 0, 1, 1]>, <124, 16, 27, 11, 8, 0, 0, [1, 1, 0, 0, 1, 1]>, <125, 17, 28, 11, 8, 0, 0, [1, 1, 0, 0, 1, 1]>, <126, 18, 29, 11, 8, 0, 0, [1, 1, 0, 0, 1, 1]>, <127, 0, 12, 12, 9, 0, 0, [0, 1, 1, 1, 1, 0]>, <128, 1, 13, 12, 9, 0, 0, [0, 1, 1, 1, 1, 0]>, <129, 2, 14, 12, 9, 0, 0, [0, 1, 1, 1, 1, 0]>, <130, 3, 15, 12, 9, 0, 0, [0, 1, 1, 1, 1, 0]>, <131, 4, 16, 12, 9, 0, 0, [0, 1, 1, 1, 1, 0]>, <132, 5, 17, 12, 9, 0, 0, [0, 1, 1, 1, 1, 0]>, <133, 8, 20, 12, 9, 0, 0, [0, 1, 1, 1, 1, 0]>, <134, 9, 21, 12, 9, 0, 0, [0, 1, 1, 1, 1, 0]>, <135, 10, 22, 12, 9, 0, 0, [0, 1, 1, 1, 1, 0]>, <136, 11, 23, 12, 9, 0, 0, [0, 1, 1, 1, 1, 0]>, <137, 12, 24, 12, 9, 0, 0, [0, 1, 1, 1, 1, 0]>, <138, 13, 25, 12, 9, 0, 0, [0, 1, 1, 1, 1, 0]>, <139, 14, 26, 12, 9, 0, 0, [0, 1, 1, 1, 1, 0]>, <140, 15, 27, 12, 9, 0, 0, [0, 1, 1, 1, 1, 0]>, <141, 16, 28, 12, 9, 0, 0, [0, 1, 1, 1, 1, 0]>, <142, 17, 29, 12, 9, 0, 0, [0, 1, 1, 1, 1, 0]>, <143, 1, 12, 11, 10, 1, 0, [0, 1, 1, 1, 1, 0]>, <144, 2, 13, 11, 10, 1, 0, [0, 1, 1, 1, 1, 0]>, <145, 3, 14, 11, 10, 1, 0, [0, 1, 1, 1, 1, 0]>, <146, 4, 15, 11, 10, 1, 0, [0, 1, 1, 1, 1, 0]>, <147, 5, 16, 11, 10, 1, 0, [0, 1, 1, 1, 1, 0]>, <148, 9, 20, 11, 10, 1, 0, [0, 1, 1, 1, 1, 0]>, <149, 10, 21, 11, 10, 1, 0, [0, 1, 1, 1, 1, 0]>, <150, 11, 22, 11, 10, 1, 0, [0, 1, 1, 1, 1, 0]>, <151, 12, 23, 11, 10, 1, 0, [0, 1, 1, 1, 1, 0]>, <152, 13, 24, 11, 10, 1, 0, [0, 1, 1, 1, 1, 0]>, <153, 14, 25, 11, 10, 1, 0, [0, 1, 1, 1, 1, 0]>, <154, 15, 26, 11, 10, 1, 0, [0, 1, 1, 1, 1, 0]>, <155, 16, 27, 11, 10, 1, 0, [0, 1, 1, 1, 1, 0]>, <156, 17, 28, 11, 10, 1, 0, [0, 1, 1, 1, 1, 0]>, <157, 18, 29, 11, 10, 1, 0, [0, 1, 1, 1, 1, 0]>, <158, 4, 12, 8, 11, 0, 0, [1, 0, 0, 1, 1, 1]>, <159, 5, 13, 8, 11, 0, 0, [1, 0, 0, 1, 1, 1]>, <160, 11, 19, 8, 11, 0, 0, [1, 0, 0, 1, 1, 1]>, <161, 12, 20, 8, 11, 0, 0, [1, 0, 0, 1, 1, 1]>, <162, 16, 24, 8, 11, 0, 0, [1, 0, 0, 1, 1, 1]>, <163, 17, 25, 8, 11, 0, 0, [1, 0, 0, 1, 1, 1]>, <164, 18, 26, 8, 11, 0, 0, [1, 0, 0, 1, 1, 1]>, <165, 19, 27, 8, 11, 0, 0, [1, 0, 0, 1, 1, 1]>, <166, 20, 28, 8, 11, 0, 0, [1, 0, 0, 1, 1, 1]>, <167, 1, 12, 11, 12, 1, 0, [1, 1, 1, 0, 0, 1]>, <168, 2, 13, 11, 12, 1, 0, [1, 1, 1, 0, 0, 1]>, <169, 3, 14, 11, 12, 1, 0, [1, 1, 1, 0, 0, 1]>, <170, 4, 15, 11, 12, 1, 0, [1, 1, 1, 0, 0, 1]>, <171, 5, 16, 11, 12, 1, 0, [1, 1, 1, 0, 0, 1]>, <172, 9, 20, 11, 12, 1, 0, [1, 1, 1, 0, 0, 1]>, <173, 10, 21, 11, 12, 1, 0, [1, 1, 1, 0, 0, 1]>, <174, 11, 22, 11, 12, 1, 0, [1, 1, 1, 0, 0, 1]>, <175, 12, 23, 11, 12, 1, 0, [1, 1, 1, 0, 0, 1]>, <176, 13, 24, 11, 12, 1, 0, [1, 1, 1, 0, 0, 1]>, <177, 14, 25, 11, 12, 1, 0, [1, 1, 1, 0, 0, 1]>, <178, 15, 26, 11, 12, 1, 0, [1, 1, 1, 0, 0, 1]>, <179, 16, 27, 11, 12, 1, 0, [1, 1, 1, 0, 0, 1]>, <180, 17, 28, 11, 12, 1, 0, [1, 1, 1, 0, 0, 1]>, <181, 18, 29, 11, 12, 1, 0, [1, 1, 1, 0, 0, 1]>, <182, 2, 12, 10, 13, 1, 0, [0, 1, 1, 1, 1, 0]>, <183, 3, 13, 10, 13, 1, 0, [0, 1, 1, 1, 1, 0]>, <184, 4, 14, 10, 13, 1, 0, [0, 1, 1, 1, 1, 0]>, <185, 5, 15, 10, 13, 1, 0, [0, 1, 1, 1, 1, 0]>, <186, 10, 20, 10, 13, 1, 0, [0, 1, 1, 1, 1, 0]>, <187, 11, 21, 10, 13, 1, 0, [0, 1, 1, 1, 1, 0]>, <188, 12, 22, 10, 13, 1, 0, [0, 1, 1, 1, 1, 0]>, <189, 14, 24, 10, 13, 1, 0, [0, 1, 1, 1, 1, 0]>, <190, 15, 25, 10, 13, 1, 0, [0, 1, 1, 1, 1, 0]>, <191, 16, 26, 10, 13, 1, 0, [0, 1, 1, 1, 1, 0]>, <192, 17, 27, 10, 13, 1, 0, [0, 1, 1, 1, 1, 0]>, <193, 18, 28, 10, 13, 1, 0, [0, 1, 1, 1, 1, 0]>, <194, 19, 29, 10, 13, 1, 0, [0, 1, 1, 1, 1, 0]>, <195, 1, 12, 11, 14, 0, 0, [1, 1, 1, 0, 0, 1]>, <196, 2, 13, 11, 14, 0, 0, [1, 1, 1, 0, 0, 1]>, <197, 3, 14, 11, 14, 0, 0, [1, 1, 1, 0, 0, 1]>, <198, 4, 15, 11, 14, 0, 0, [1, 1, 1, 0, 0, 1]>, <199, 5, 16, 11, 14, 0, 0, [1, 1, 1, 0, 0, 1]>, <200, 9, 20, 11, 14, 0, 0, [1, 1, 1, 0, 0, 1]>, <201, 10, 21, 11, 14, 0, 0, [1, 1, 1, 0, 0, 1]>, <202, 11, 22, 11, 14, 0, 0, [1, 1, 1, 0, 0, 1]>, <203, 12, 23, 11, 14, 0, 0, [1, 1, 1, 0, 0, 1]>, <204, 13, 24, 11, 14, 0, 0, [1, 1, 1, 0, 0, 1]>, <205, 14, 25, 11, 14, 0, 0, [1, 1, 1, 0, 0, 1]>, <206, 15, 26, 11, 14, 0, 0, [1, 1, 1, 0, 0, 1]>, <207, 16, 27, 11, 14, 0, 0, [1, 1, 1, 0, 0, 1]>, <208, 17, 28, 11, 14, 0, 0, [1, 1, 1, 0, 0, 1]>, <209, 18, 29, 11, 14, 0, 0, [1, 1, 1, 0, 0, 1]>};
